p td 80 120
22 57
22 69
22 6
57 34
57 29
36 73
36 76
36 66
73 2
73 76
62 64
62 65
62 12
64 24
64 4
40 41
40 35
40 16
41 61
41 44
1 6
1 78
1 14
6 79
23 69
23 10
23 77
69 7
47 56
47 34
47 59
56 18
56 27
19 29
19 37
19 42
29 68
3 45
3 50
3 20
45 5
45 7
18 54
18 74
27 17
27 37
48 59
48 16
48 24
59 4
28 46
28 8
28 52
46 72
46 25
34 43
58 65
58 33
58 37
65 13
70 75
70 30
70 74
75 60
75 49
20 32
20 52
32 68
32 39
10 72
10 39
2 74
2 55
0 52
0 25
0 38
78 17
78 61
8 31
8 67
31 67
31 11
12 50
12 15
50 61
26 43
26 42
26 71
43 55
25 33
33 21
17 77
76 39
49 51
49 67
51 11
51 71
30 55
30 71
68 63
11 60
35 21
35 42
60 9
21 79
24 53
72 14
53 7
53 13
4 54
16 14
9 38
9 5
38 66
44 63
44 79
77 63
13 15
15 5
54 66
